Route #1: 26 37 24 6 44 1
Route #2: 23 28 7 11 40 30 19 34 27
Route #3: 29 43 18 17 13
Route #4: 32 20 5 21 33 41 8 10 3
Route #5: 9 22 16 4 42 36 39 12
Route #6: 15 25 2 38 31 35 14
Cost 948
Time 0.063112
